50
150
100
96
95
94
94
92
92
90
86
84
77
73
66
66
59
56
56
56
55
54
53
53
53
52
49
48
47
45
45
45
41
41
41
37
36
24
22
21
20
18
16
15
14
14
13
12
10
8
4
1
